p wcnf 45 515 16
1 1 6 11 16 21 26 31 36 41 0
2 2 7 12 17 22 27 32 37 42 0
3 3 8 13 18 23 28 33 38 43 0
4 4 9 14 19 24 29 34 39 44 0
5 5 10 15 20 25 30 35 40 45 0
16 -1 -17 0
16 -1 -18 0
16 -1 -19 0
16 -1 -20 0
16 -2 -16 0
16 -2 -18 0
16 -2 -19 0
16 -2 -20 0
16 -3 -16 0
16 -3 -17 0
16 -3 -19 0
16 -3 -20 0
16 -4 -16 0
16 -4 -17 0
16 -4 -18 0
16 -4 -20 0
16 -5 -16 0
16 -5 -17 0
16 -5 -18 0
16 -5 -19 0
16 -1 -22 0
16 -1 -23 0
16 -1 -24 0
16 -1 -25 0
16 -2 -21 0
16 -2 -23 0
16 -2 -24 0
16 -2 -25 0
16 -3 -21 0
16 -3 -22 0
16 -3 -24 0
16 -3 -25 0
16 -4 -21 0
16 -4 -22 0
16 -4 -23 0
16 -4 -25 0
16 -5 -21 0
16 -5 -22 0
16 -5 -23 0
16 -5 -24 0
16 -1 -32 0
16 -1 -33 0
16 -1 -34 0
16 -1 -35 0
16 -2 -31 0
16 -2 -33 0
16 -2 -34 0
16 -2 -35 0
16 -3 -31 0
16 -3 -32 0
16 -3 -34 0
16 -3 -35 0
16 -4 -31 0
16 -4 -32 0
16 -4 -33 0
16 -4 -35 0
16 -5 -31 0
16 -5 -32 0
16 -5 -33 0
16 -5 -34 0
16 -1 -42 0
16 -1 -43 0
16 -1 -44 0
16 -1 -45 0
16 -2 -41 0
16 -2 -43 0
16 -2 -44 0
16 -2 -45 0
16 -3 -41 0
16 -3 -42 0
16 -3 -44 0
16 -3 -45 0
16 -4 -41 0
16 -4 -42 0
16 -4 -43 0
16 -4 -45 0
16 -5 -41 0
16 -5 -42 0
16 -5 -43 0
16 -5 -44 0
16 -6 -17 0
16 -6 -18 0
16 -6 -19 0
16 -6 -20 0
16 -7 -16 0
16 -7 -18 0
16 -7 -19 0
16 -7 -20 0
16 -8 -16 0
16 -8 -17 0
16 -8 -19 0
16 -8 -20 0
16 -9 -16 0
16 -9 -17 0
16 -9 -18 0
16 -9 -20 0
16 -10 -16 0
16 -10 -17 0
16 -10 -18 0
16 -10 -19 0
16 -11 -17 0
16 -11 -18 0
16 -11 -19 0
16 -11 -20 0
16 -12 -16 0
16 -12 -18 0
16 -12 -19 0
16 -12 -20 0
16 -13 -16 0
16 -13 -17 0
16 -13 -19 0
16 -13 -20 0
16 -14 -16 0
16 -14 -17 0
16 -14 -18 0
16 -14 -20 0
16 -15 -16 0
16 -15 -17 0
16 -15 -18 0
16 -15 -19 0
16 -16 -27 0
16 -16 -28 0
16 -16 -29 0
16 -16 -30 0
16 -17 -26 0
16 -17 -28 0
16 -17 -29 0
16 -17 -30 0
16 -18 -26 0
16 -18 -27 0
16 -18 -29 0
16 -18 -30 0
16 -19 -26 0
16 -19 -27 0
16 -19 -28 0
16 -19 -30 0
16 -20 -26 0
16 -20 -27 0
16 -20 -28 0
16 -20 -29 0
16 -16 -32 0
16 -16 -33 0
16 -16 -34 0
16 -16 -35 0
16 -17 -31 0
16 -17 -33 0
16 -17 -34 0
16 -17 -35 0
16 -18 -31 0
16 -18 -32 0
16 -18 -34 0
16 -18 -35 0
16 -19 -31 0
16 -19 -32 0
16 -19 -33 0
16 -19 -35 0
16 -20 -31 0
16 -20 -32 0
16 -20 -33 0
16 -20 -34 0
16 -21 -32 0
16 -21 -33 0
16 -21 -34 0
16 -21 -35 0
16 -22 -31 0
16 -22 -33 0
16 -22 -34 0
16 -22 -35 0
16 -23 -31 0
16 -23 -32 0
16 -23 -34 0
16 -23 -35 0
16 -24 -31 0
16 -24 -32 0
16 -24 -33 0
16 -24 -35 0
16 -25 -31 0
16 -25 -32 0
16 -25 -33 0
16 -25 -34 0
16 -26 -37 0
16 -26 -38 0
16 -26 -39 0
16 -26 -40 0
16 -27 -36 0
16 -27 -38 0
16 -27 -39 0
16 -27 -40 0
16 -28 -36 0
16 -28 -37 0
16 -28 -39 0
16 -28 -40 0
16 -29 -36 0
16 -29 -37 0
16 -29 -38 0
16 -29 -40 0
16 -30 -36 0
16 -30 -37 0
16 -30 -38 0
16 -30 -39 0
16 -26 -42 0
16 -26 -43 0
16 -26 -44 0
16 -26 -45 0
16 -27 -41 0
16 -27 -43 0
16 -27 -44 0
16 -27 -45 0
16 -28 -41 0
16 -28 -42 0
16 -28 -44 0
16 -28 -45 0
16 -29 -41 0
16 -29 -42 0
16 -29 -43 0
16 -29 -45 0
16 -30 -41 0
16 -30 -42 0
16 -30 -43 0
16 -30 -44 0
16 -31 -42 0
16 -31 -43 0
16 -31 -44 0
16 -31 -45 0
16 -32 -41 0
16 -32 -43 0
16 -32 -44 0
16 -32 -45 0
16 -33 -41 0
16 -33 -42 0
16 -33 -44 0
16 -33 -45 0
16 -34 -41 0
16 -34 -42 0
16 -34 -43 0
16 -34 -45 0
16 -35 -41 0
16 -35 -42 0
16 -35 -43 0
16 -35 -44 0
16 -1 -6 0
16 -1 -11 0
16 -1 -16 0
16 -1 -21 0
16 -1 -26 0
16 -1 -31 0
16 -1 -36 0
16 -1 -41 0
16 -2 -7 0
16 -2 -12 0
16 -2 -17 0
16 -2 -22 0
16 -2 -27 0
16 -2 -32 0
16 -2 -37 0
16 -2 -42 0
16 -3 -8 0
16 -3 -13 0
16 -3 -18 0
16 -3 -23 0
16 -3 -28 0
16 -3 -33 0
16 -3 -38 0
16 -3 -43 0
16 -4 -9 0
16 -4 -14 0
16 -4 -19 0
16 -4 -24 0
16 -4 -29 0
16 -4 -34 0
16 -4 -39 0
16 -4 -44 0
16 -5 -10 0
16 -5 -15 0
16 -5 -20 0
16 -5 -25 0
16 -5 -30 0
16 -5 -35 0
16 -5 -40 0
16 -5 -45 0
16 -6 -11 0
16 -6 -16 0
16 -6 -21 0
16 -6 -26 0
16 -6 -31 0
16 -6 -36 0
16 -6 -41 0
16 -7 -12 0
16 -7 -17 0
16 -7 -22 0
16 -7 -27 0
16 -7 -32 0
16 -7 -37 0
16 -7 -42 0
16 -8 -13 0
16 -8 -18 0
16 -8 -23 0
16 -8 -28 0
16 -8 -33 0
16 -8 -38 0
16 -8 -43 0
16 -9 -14 0
16 -9 -19 0
16 -9 -24 0
16 -9 -29 0
16 -9 -34 0
16 -9 -39 0
16 -9 -44 0
16 -10 -15 0
16 -10 -20 0
16 -10 -25 0
16 -10 -30 0
16 -10 -35 0
16 -10 -40 0
16 -10 -45 0
16 -11 -16 0
16 -11 -21 0
16 -11 -26 0
16 -11 -31 0
16 -11 -36 0
16 -11 -41 0
16 -12 -17 0
16 -12 -22 0
16 -12 -27 0
16 -12 -32 0
16 -12 -37 0
16 -12 -42 0
16 -13 -18 0
16 -13 -23 0
16 -13 -28 0
16 -13 -33 0
16 -13 -38 0
16 -13 -43 0
16 -14 -19 0
16 -14 -24 0
16 -14 -29 0
16 -14 -34 0
16 -14 -39 0
16 -14 -44 0
16 -15 -20 0
16 -15 -25 0
16 -15 -30 0
16 -15 -35 0
16 -15 -40 0
16 -15 -45 0
16 -16 -21 0
16 -16 -26 0
16 -16 -31 0
16 -16 -36 0
16 -16 -41 0
16 -17 -22 0
16 -17 -27 0
16 -17 -32 0
16 -17 -37 0
16 -17 -42 0
16 -18 -23 0
16 -18 -28 0
16 -18 -33 0
16 -18 -38 0
16 -18 -43 0
16 -19 -24 0
16 -19 -29 0
16 -19 -34 0
16 -19 -39 0
16 -19 -44 0
16 -20 -25 0
16 -20 -30 0
16 -20 -35 0
16 -20 -40 0
16 -20 -45 0
16 -21 -26 0
16 -21 -31 0
16 -21 -36 0
16 -21 -41 0
16 -22 -27 0
16 -22 -32 0
16 -22 -37 0
16 -22 -42 0
16 -23 -28 0
16 -23 -33 0
16 -23 -38 0
16 -23 -43 0
16 -24 -29 0
16 -24 -34 0
16 -24 -39 0
16 -24 -44 0
16 -25 -30 0
16 -25 -35 0
16 -25 -40 0
16 -25 -45 0
16 -26 -31 0
16 -26 -36 0
16 -26 -41 0
16 -27 -32 0
16 -27 -37 0
16 -27 -42 0
16 -28 -33 0
16 -28 -38 0
16 -28 -43 0
16 -29 -34 0
16 -29 -39 0
16 -29 -44 0
16 -30 -35 0
16 -30 -40 0
16 -30 -45 0
16 -31 -36 0
16 -31 -41 0
16 -32 -37 0
16 -32 -42 0
16 -33 -38 0
16 -33 -43 0
16 -34 -39 0
16 -34 -44 0
16 -35 -40 0
16 -35 -45 0
16 -36 -41 0
16 -37 -42 0
16 -38 -43 0
16 -39 -44 0
16 -40 -45 0
16 -1 -2 0
16 -1 -3 0
16 -1 -4 0
16 -1 -5 0
16 -2 -3 0
16 -2 -4 0
16 -2 -5 0
16 -3 -4 0
16 -3 -5 0
16 -4 -5 0
16 -6 -7 0
16 -6 -8 0
16 -6 -9 0
16 -6 -10 0
16 -7 -8 0
16 -7 -9 0
16 -7 -10 0
16 -8 -9 0
16 -8 -10 0
16 -9 -10 0
16 -11 -12 0
16 -11 -13 0
16 -11 -14 0
16 -11 -15 0
16 -12 -13 0
16 -12 -14 0
16 -12 -15 0
16 -13 -14 0
16 -13 -15 0
16 -14 -15 0
16 -16 -17 0
16 -16 -18 0
16 -16 -19 0
16 -16 -20 0
16 -17 -18 0
16 -17 -19 0
16 -17 -20 0
16 -18 -19 0
16 -18 -20 0
16 -19 -20 0
16 -21 -22 0
16 -21 -23 0
16 -21 -24 0
16 -21 -25 0
16 -22 -23 0
16 -22 -24 0
16 -22 -25 0
16 -23 -24 0
16 -23 -25 0
16 -24 -25 0
16 -26 -27 0
16 -26 -28 0
16 -26 -29 0
16 -26 -30 0
16 -27 -28 0
16 -27 -29 0
16 -27 -30 0
16 -28 -29 0
16 -28 -30 0
16 -29 -30 0
16 -31 -32 0
16 -31 -33 0
16 -31 -34 0
16 -31 -35 0
16 -32 -33 0
16 -32 -34 0
16 -32 -35 0
16 -33 -34 0
16 -33 -35 0
16 -34 -35 0
16 -36 -37 0
16 -36 -38 0
16 -36 -39 0
16 -36 -40 0
16 -37 -38 0
16 -37 -39 0
16 -37 -40 0
16 -38 -39 0
16 -38 -40 0
16 -39 -40 0
16 -41 -42 0
16 -41 -43 0
16 -41 -44 0
16 -41 -45 0
16 -42 -43 0
16 -42 -44 0
16 -42 -45 0
16 -43 -44 0
16 -43 -45 0
16 -44 -45 0
